Cu N  C  H 
 1.0000000000000000
    16.6040532737428421    0.0000000000000000    0.0000000000000000
    -0.0000009346684432   21.3827157952374272    0.0000000000000000
    -0.0000012956390984   -0.0000012956390984   29.6407595823596566
 Cu  N   C   H  
   1   4  32  20
Cartesian
  8.3276072868776332 10.6860472497963741 14.8123482471438361
  8.3276072868776367 12.0175312497963738 16.3326073601837791
  8.2738670550933122 12.1826382497963763 13.4718146811631971
  8.3157530976967138  9.3497702497963751 13.2986225557849735
  8.3921415411705240  9.1945362497963750 16.1497184301118359
  8.3674270800232584 11.7580612497963770 17.6878973327766715
  8.3795400726480338 12.9959682497963769 18.4329708292900527
  8.3405339956402642 14.0072032497963761 17.5176406152047370
  8.3107164926921300 13.3902462497963768 16.2156408230469467
  8.2764950426934050 14.0958842497963737 15.0191856171992786
  8.2587687031077088 13.5327082497963751 13.7494928960096612
  8.2202828619697428 14.2971082497963771 12.5284323949349172
  8.2109479370544634 13.4003352497963739 11.5009463878137375
  8.2444448382716295 12.0829642497963761 12.0955270108968023
  8.2461440984259298 10.8917042497963763 11.3613659796945683
  8.2799816942132267  9.6189212497963759 11.9444780958037580
  8.2787179986480943  8.3870742497963739 11.1912939211860731
  8.3105447065237357  7.3674122497963737 12.0977641025477123
  8.3351130246634710  7.9726762497963755 13.4071499020062923
  8.3704068060332197  7.2515742497963771 14.6039208457685579
  8.3938319026213826  7.8426082497963741 15.8745705254874938
  8.4235909610068518  7.0833652497963762 17.1018022838726047
  8.4359516123654394  7.9835112497963756 18.1242572310169727
  8.4196683489239206  9.2974772497963762 17.5274779527702371
  8.4107866185963829 10.4859462497963740 18.2688878792821434
  8.2120658916836611 11.0056972497963770  9.8704892300931046
  9.4042818619446322 11.0967242497963738  9.1371873925768625
  6.9890362741502017 11.0767952497963762  9.1872836774744489
  9.3746538784057378 11.2708402497963753  7.7514207248393205
  6.9588610169170657 11.2497952497963745  7.8012405074700251
  8.1516076820346441 11.3531102497963765  7.0807017214293992
  8.4490701216359518 10.3742562497963746 19.7578467529616759
  9.6385542627439982 10.0206552497963770 20.4136529852166397
  7.2929493748170380 10.5884912497963768 20.5237986653732030
  9.6709106388446742  9.8805322497963743 21.8026639103466877
  7.3240729050752336 10.4440312497963745 21.9129730687240780
  8.5126733718783676 10.0888342497963741 22.5561853959165610
  8.2623489231289611  6.3107132497963754 14.1428360645490407
  8.4185757565074333 13.0661802497963748 19.5154530869029088
  8.3375282431518833 15.0796832497963784 17.6943014535390404
  8.2623687416268368 15.1842262497963780 15.0822790274905003
  8.2021148707470033 15.3827152497963731 12.4782334852362951
  8.1838940586581970 13.5977042497963758 10.4339750773945106
  8.2556453821249463  8.3255212497963740 10.1075111612785484
  8.3163131878561458  6.2973752497963744 11.9120340119104711
  8.4279149740113546  5.9999992497963746 17.1626540071476015
  8.4492697064543520  7.7850862497963753 19.1908347668027375
 10.3580083957167091 11.0427082497963767  9.6646786179144026
  6.0583984816163241 11.0075962497963751  9.7529101820493977
 10.3104398077327879 11.3506082497963767  7.1959523871048354
  5.9999991871391707 11.3119192497963752  7.2841637805329196
  8.1281923135657657 11.5003972497963751  6.0000000000000000
 10.5404324296949845  9.8531742497963748 19.8225933384777271
  6.3624572107060402 10.8548952497963747 20.0196690231252603
 10.6040518792667093  9.6052272497963749 22.2966583598141099
  6.4140222138831930 10.6021122497963738 22.4938344791189238
  8.5362003858473763  9.9732262497963760 23.6407595823596566
